5384
7888
829
4421
3678
2967
3016
5531
7433
7492
8318
2039
6166
8736
5226
7747
3120
2598
4563
1595
9379
8552
927
3143
2895
4403
2872
4660
10075
5233
4573
1590
2068
9715
3290
1209
4054
6518
654
9447
1619
1664
8014
2685
1257
6457
886
2769
5057
8531
